c b=2,c=209
p cnf 12 22
2 -4 0
2 -8 0
1 2 -10 0
2 -11 0
-2 4 0
-2 8 0
1 -2 10 0
1 -2 11 0
1 -3 0
1 -7 0
1 -9 0
1 -12 0
-1 2 10 0
2 -12 0
-1 -2 -10 0
-1 -2 12 0
-1 3 0
-1 7 0
-1 9 0
-1 -11 0
-5 0
-6 0
